VER
2

OBJSENSE
MAX

PSDVAR
6
3
3
3
3
3
3

PSDVARRANK1
6
0
1
2
3
4
5

VAR
15 1
L+ 15

INT
9
0
3
6
1
4
7
2
5
8

CON
115 3
L= 5
L- 38
L+ 72

OBJACOORD
6
9 1.0
12 1.0
10 1.0
13 1.0
11 1.0
14 1.0

FCOORD
306
0 0 0 0 -0.113528445688638
0 3 0 0 0.113528445688638
0 0 1 0 0.4003661451145324
0 3 1 0 -0.4003661451145324
0 0 1 1 -0.09186067144188656
0 3 1 1 0.09186067144188656
0 0 2 0 -0.5083771364068891
0 3 2 0 0.5083771364068891
0 0 2 1 -0.9412294774676309
0 3 2 1 0.9412294774676309
0 0 2 2 1.7848298388668364
0 3 2 2 -1.7848298388668364
0 1 0 0 -0.113528445688638
0 4 0 0 0.113528445688638
0 1 1 0 0.4003661451145324
0 4 1 0 -0.4003661451145324
0 1 1 1 -0.09186067144188656
0 4 1 1 0.09186067144188656
0 1 2 0 -0.5083771364068891
0 4 2 0 0.5083771364068891
0 1 2 1 -0.9412294774676309
0 4 2 1 0.9412294774676309
0 1 2 2 1.7848298388668364
0 4 2 2 -1.7848298388668364
0 2 0 0 -0.113528445688638
0 5 0 0 0.113528445688638
0 2 1 0 0.4003661451145324
0 5 1 0 -0.4003661451145324
0 2 1 1 -0.09186067144188656
0 5 1 1 0.09186067144188656
0 2 2 0 -0.5083771364068891
0 5 2 0 0.5083771364068891
0 2 2 1 -0.9412294774676309
0 5 2 1 0.9412294774676309
0 2 2 2 1.7848298388668364
0 5 2 2 -1.7848298388668364
1 0 0 0 -0.2001889862162841
1 3 0 0 0.2001889862162841
1 0 1 0 1.399845977486357
1 3 1 0 -1.399845977486357
1 0 1 1 0.9270719731616963
1 3 1 1 -0.9270719731616963
1 0 2 0 0.01095859833059254
1 3 2 0 -0.01095859833059254
1 0 2 1 -0.16765872155385514
1 3 2 1 0.16765872155385514
1 0 2 2 0.2881855781305219
1 3 2 2 -0.2881855781305219
1 1 0 0 -0.2001889862162841
1 4 0 0 0.2001889862162841
1 1 1 0 1.399845977486357
1 4 1 0 -1.399845977486357
1 1 1 1 0.9270719731616963
1 4 1 1 -0.9270719731616963
1 1 2 0 0.01095859833059254
1 4 2 0 -0.01095859833059254
1 1 2 1 -0.16765872155385514
1 4 2 1 0.16765872155385514
1 1 2 2 0.2881855781305219
1 4 2 2 -0.2881855781305219
1 2 0 0 -0.2001889862162841
1 5 0 0 0.2001889862162841
1 2 1 0 1.399845977486357
1 5 1 0 -1.399845977486357
1 2 1 1 0.9270719731616963
1 5 1 1 -0.9270719731616963
1 2 2 0 0.01095859833059254
1 5 2 0 -0.01095859833059254
1 2 2 1 -0.16765872155385514
1 5 2 1 0.16765872155385514
1 2 2 2 0.2881855781305219
1 5 2 2 -0.2881855781305219
2 0 0 0 2.265195433572334
2 3 0 0 -2.265195433572334
2 0 1 0 0.19809649078393032
2 3 1 0 -0.19809649078393032
2 0 1 1 -0.9118188768095334
2 3 1 1 0.9118188768095334
2 0 2 0 -0.23690909685643802
2 3 2 0 0.23690909685643802
2 0 2 1 0.1788067037599229
2 3 2 1 -0.1788067037599229
2 0 2 2 0.29963854270211004
2 3 2 2 -0.29963854270211004
2 1 0 0 2.265195433572334
2 4 0 0 -2.265195433572334
2 1 1 0 0.19809649078393032
2 4 1 0 -0.19809649078393032
2 1 1 1 -0.9118188768095334
2 4 1 1 0.9118188768095334
2 1 2 0 -0.23690909685643802
2 4 2 0 0.23690909685643802
2 1 2 1 0.1788067037599229
2 4 2 1 -0.1788067037599229
2 1 2 2 0.29963854270211004
2 4 2 2 -0.29963854270211004
2 2 0 0 2.265195433572334
2 5 0 0 -2.265195433572334
2 2 1 0 0.19809649078393032
2 5 1 0 -0.19809649078393032
2 2 1 1 -0.9118188768095334
2 5 1 1 0.9118188768095334
2 2 2 0 -0.23690909685643802
2 5 2 0 0.23690909685643802
2 2 2 1 0.1788067037599229
2 5 2 1 -0.1788067037599229
2 2 2 2 0.29963854270211004
2 5 2 2 -0.29963854270211004
3 0 0 0 -0.19721845554178322
3 3 0 0 0.19721845554178322
3 0 1 0 -1.4727021893876342
3 3 1 0 1.4727021893876342
3 0 1 1 0.39327517604536055
3 3 1 1 -0.39327517604536055
3 0 2 0 -0.7003518902254693
3 3 2 0 0.7003518902254693
3 0 2 1 -0.26586060469276174
3 3 2 1 0.26586060469276174
3 0 2 2 0.6210113076638747
3 3 2 2 -0.6210113076638747
3 1 0 0 -0.19721845554178322
3 4 0 0 0.19721845554178322
3 1 1 0 -1.4727021893876342
3 4 1 0 1.4727021893876342
3 1 1 1 0.39327517604536055
3 4 1 1 -0.39327517604536055
3 1 2 0 -0.7003518902254693
3 4 2 0 0.7003518902254693
3 1 2 1 -0.26586060469276174
3 4 2 1 0.26586060469276174
3 1 2 2 0.6210113076638747
3 4 2 2 -0.6210113076638747
3 2 0 0 -0.19721845554178322
3 5 0 0 0.19721845554178322
3 2 1 0 -1.4727021893876342
3 5 1 0 1.4727021893876342
3 2 1 1 0.39327517604536055
3 5 1 1 -0.39327517604536055
3 2 2 0 -0.7003518902254693
3 5 2 0 0.7003518902254693
3 2 2 1 -0.26586060469276174
3 5 2 1 0.26586060469276174
3 2 2 2 0.6210113076638747
3 5 2 2 -0.6210113076638747
4 0 0 0 -1.5075225851237388
4 3 0 0 1.5075225851237388
4 0 1 0 -1.1668422494463115
4 3 1 0 1.1668422494463115
4 0 1 1 1.244903010316905
4 3 1 1 -1.244903010316905
4 0 2 0 0.08731186355389609
4 3 2 0 -0.08731186355389609
4 0 2 1 -0.5252846032549144
4 3 2 1 0.5252846032549144
4 0 2 2 0.5493491479917918
4 3 2 2 -0.5493491479917918
4 1 0 0 -1.5075225851237388
4 4 0 0 1.5075225851237388
4 1 1 0 -1.1668422494463115
4 4 1 0 1.1668422494463115
4 1 1 1 1.244903010316905
4 4 1 1 -1.244903010316905
4 1 2 0 0.08731186355389609
4 4 2 0 -0.08731186355389609
4 1 2 1 -0.5252846032549144
4 4 2 1 0.5252846032549144
4 1 2 2 0.5493491479917918
4 4 2 2 -0.5493491479917918
4 2 0 0 -1.5075225851237388
4 5 0 0 1.5075225851237388
4 2 1 0 -1.1668422494463115
4 5 1 0 1.1668422494463115
4 2 1 1 1.244903010316905
4 5 1 1 -1.244903010316905
4 2 2 0 0.08731186355389609
4 5 2 0 -0.08731186355389609
4 2 2 1 -0.5252846032549144
4 5 2 1 0.5252846032549144
4 2 2 2 0.5493491479917918
4 5 2 2 -0.5493491479917918
5 0 0 0 1.0
5 3 0 0 1.0
5 0 1 1 1.0
5 3 1 1 1.0
5 0 2 2 1.0
5 3 2 2 1.0
5 1 0 0 1.0
5 4 0 0 1.0
5 1 1 1 1.0
5 4 1 1 1.0
5 1 2 2 1.0
5 4 2 2 1.0
5 2 0 0 1.0
5 5 0 0 1.0
5 2 1 1 1.0
5 5 1 1 1.0
5 2 2 2 1.0
5 5 2 2 1.0
13 0 0 0 -1.0
13 0 1 1 -1.0
13 0 2 2 -1.0
14 1 0 0 -1.0
14 1 1 1 -1.0
14 1 2 2 -1.0
15 2 0 0 -1.0
15 2 1 1 -1.0
15 2 2 2 -1.0
16 3 0 0 -1.0
16 3 1 1 -1.0
16 3 2 2 -1.0
17 4 0 0 -1.0
17 4 1 1 -1.0
17 4 2 2 -1.0
18 5 0 0 -1.0
18 5 1 1 -1.0
18 5 2 2 -1.0
22 0 0 0 1.0
22 0 1 1 1.0
22 0 2 2 1.0
23 1 0 0 1.0
23 1 1 1 1.0
23 1 2 2 1.0
24 2 0 0 1.0
24 2 1 1 1.0
24 2 2 2 1.0
25 3 0 0 1.0
25 3 1 1 1.0
25 3 2 2 1.0
26 4 0 0 1.0
26 4 1 1 1.0
26 4 2 2 1.0
27 5 0 0 1.0
27 5 1 1 1.0
27 5 2 2 1.0
43 0 0 0 1.0 
44 0 0 0 -1.0
45 0 1 0 1.0 
46 0 1 0 -1.0
47 0 1 1 1.0 
48 0 1 1 -1.0
49 0 2 0 1.0 
50 0 2 0 -1.0
51 0 2 1 1.0 
52 0 2 1 -1.0
53 0 2 2 1.0 
54 0 2 2 -1.0
55 1 0 0 1.0 
56 1 0 0 -1.0
57 1 1 0 1.0 
58 1 1 0 -1.0
59 1 1 1 1.0 
60 1 1 1 -1.0
61 1 2 0 1.0 
62 1 2 0 -1.0
63 1 2 1 1.0 
64 1 2 1 -1.0
65 1 2 2 1.0 
66 1 2 2 -1.0
67 2 0 0 1.0 
68 2 0 0 -1.0
69 2 1 0 1.0 
70 2 1 0 -1.0
71 2 1 1 1.0 
72 2 1 1 -1.0
73 2 2 0 1.0 
74 2 2 0 -1.0
75 2 2 1 1.0 
76 2 2 1 -1.0
77 2 2 2 1.0 
78 2 2 2 -1.0
79 3 0 0 1.0 
80 3 0 0 -1.0
81 3 1 0 1.0 
82 3 1 0 -1.0
83 3 1 1 1.0 
84 3 1 1 -1.0
85 3 2 0 1.0 
86 3 2 0 -1.0
87 3 2 1 1.0 
88 3 2 1 -1.0
89 3 2 2 1.0 
90 3 2 2 -1.0
91 4 0 0 1.0 
92 4 0 0 -1.0
93 4 1 0 1.0 
94 4 1 0 -1.0
95 4 1 1 1.0 
96 4 1 1 -1.0
97 4 2 0 1.0 
98 4 2 0 -1.0
99 4 2 1  1.0 
100 4 2 1 -1.0
101 4 2 2 1.0 
102 4 2 2 -1.0
103 5 0 0 1.0 
104 5 0 0 -1.0
105 5 1 0 1.0 
106 5 1 0 -1.0
107 5 1 1 1.0 
108 5 1 1 -1.0
109 5 2 0 1.0 
110 5 2 0 -1.0
111 5 2 1 1.0 
112 5 2 1 -1.0
113 5 2 2 1.0 
114 5 2 2 -1.0

ACOORD
48
6 0 1.0
6 1 1.0
6 2 1.0
7 9 1.0
7 0 -1.0
8 10 1.0
8 1 -1.0
9 11 1.0
9 2 -1.0
10 12 1.0
10 0 -1.0
11 13 1.0
11 1 -1.0
12 14 1.0
12 2 -1.0
13 9 1.0
14 10 1.0
15 11 1.0
16 12 1.0
17 13 1.0
18 14 1.0
19 3 1.0
19 6 1.0
20 4 1.0
20 7 1.0
21 5 1.0
21 8 1.0
28 0 1.0
29 1 1.0
30 2 1.0
31 3 1.0
32 4 1.0
33 5 1.0
34 6 1.0
35 7 1.0
36 8 1.0
37 9 1.0
38 10 1.0
39 11 1.0
40 12 1.0
41 13 1.0
42 14 1.0
22 3 -1.0
23 4 -1.0
24 5 -1.0
25 6 -1.0
26 7 -1.0
27 8 -1.0

BCOORD
92
5 -1.0
6 -1.0
19 -1.0
20 -1.0
21 -1.0
28 -1.0
29 -1.0
30 -1.0
31 -1.0
32 -1.0
33 -1.0
34 -1.0
35 -1.0
36 -1.0
37 -1.0
38 -1.0
39 -1.0
40 -1.0
41 -1.0
42 -1.0
43 10.0
44 10.0
45 20.0
46 20.0
47 10.0
48 10.0
49 20.0
50 20.0
51 20.0
52 20.0
53 10.0
54 10.0
55 10.0
56 10.0
57 20.0
58 20.0
59 10.0
60 10.0
61 20.0
62 20.0
63 20.0
64 20.0
65 10.0
66 10.0
67 10.0
68 10.0
69 20.0
70 20.0
71 10.0
72 10.0
73 20.0
74 20.0
75 20.0
76 20.0
77 10.0
78 10.0
79 10.0
80 10.0
81 20.0
82 20.0
83 10.0
84 10.0
85 20.0
86 20.0
87 20.0
88 20.0
89 10.0
90 10.0
91 10.0
92 10.0
93 20.0
94 20.0
95 10.0
96 10.0
97 20.0
98 20.0
99 20.0
100 20.0
101 10.0
102 10.0
103 10.0
104 10.0
105 20.0
106 20.0
107 10.0
108 10.0
109 20.0
110 20.0
111 20.0
112 20.0
113 10.0
114 10.0
